******----Entity ID----El. Pos. ID---Loadcase ID----X Location----Y Location----Z Location----von Mises----X Component---Y Component---Z Component---Max Principal--Min Principal------CID------
LC0010       80002671             0             3  45661.550781   2817.709961   -101.844002    456.162750   -505.502411     -0.406239   -143.047821      0.015211    -509.583588              0
LC0010       80002673             0             3  45595.296875   2817.679932   -103.433258    471.024994   -511.346771     -0.140401    -95.216057      0.003722    -511.391083              0
LC0010       80002675             0             3  45529.050781   2817.647461   -105.022751    487.813110   -519.594299     -0.042474    -76.511597      0.021055    -521.015625              0
LC0010       80002677             0             3  45462.796875   2817.612549   -106.612244    493.795624   -519.058899      0.003129    -70.846375      0.039559    -523.592041              0
LC0010       80002679             0             3  45396.550781   2817.582764   -108.201492    491.521545   -512.173828     -0.028869    -76.379715      0.033243    -521.579163              0
LC0010       80002681             0             3  45330.296875   2817.552490   -109.790756    495.021240   -514.482605     -0.352974   -130.850876      0.004732    -539.497131              0
LC0010       80002683             0             3  45264.050781   2817.520020   -111.380249    505.449188   -481.344299     -1.459506   -236.730591      0.741203    -564.462097              0
LC0010       80002698             0             3  45727.800781   2817.742676   -100.254745    520.652466   -507.013031     -0.981501   -246.074341      0.364203    -584.188171              0
LC0010       80003020             0             3  46969.953125   2802.587646    -59.343903    540.217346   -563.225159     -0.401249    -50.163666      0.000933    -563.572571              0
LC0010       80003021             0             3  47003.101563   2801.772461    -58.546703    541.725952   -557.775879     -0.475560    -39.766624      0.000856    -559.815796              0
LC0010       80003022             0             3  47036.250000   2800.959961    -57.749527    534.131714   -551.612732     -0.491705    -49.399422      0.001530    -555.601379              0
LC0010       80003023             0             3  47069.351563   2800.147461    -56.952351    502.671600   -539.873230     -0.556808    -89.445236      0.002171    -541.132568              0
LC0010       80003062             0             3  46903.750000   2804.209961    -60.938274    549.205444   -580.576904     -0.459631   -141.925003      0.039968    -600.188110              0
LC0010       80003063             0             3  46936.851563   2803.399902    -60.141102    540.732971   -572.267944     -0.411196    -80.779213      0.006240    -575.485229              0
LC0010       80003084             0             3  46837.453125   2805.837402    -62.532650    578.335938   -546.633118     -2.658127   -401.414490      1.715811    -664.234436              0
LC0010       80003085             0             3  46870.601563   2805.022705    -61.735447    568.098328   -577.482544     -0.850444   -263.393707      0.178442    -641.092224              0
LC0010       80003448             0             3  45933.699219   2817.097656    -84.088829    623.075989   -664.501404     -0.645722   -186.145294      0.063237    -688.336182              0
LC0010       80003451             0             3  46040.675781   2816.397461    -81.438248    700.562744   -769.427429     -1.351415   -297.366425      0.406273    -795.620605              0
LC0010       80003452             0             3  46139.449219   2815.750000    -78.991570    875.677368   -882.482422    -10.668161   -727.449646     24.410513    -951.015198              0
LC0010       80003454             0             3  45884.324219   2817.422607    -85.312073    588.267456   -630.110107     -0.848197   -202.229309      0.146249    -656.337097              0
LC0010       80003457             0             3  45974.851563   2816.827637    -83.069397    650.632263   -698.591797     -0.719567   -199.773544      0.077071    -721.076843              0
LC0010       80003458             0             3  46007.750000   2816.612549    -82.253799    674.732788   -732.315186     -0.897251   -236.514236      0.136962    -755.716248              0
LC0010       80003461             0             3  46106.523438   2815.964844    -79.807228    759.604919   -838.034363     -4.856923   -511.946716      6.061618    -868.156799              0
LC0010       80003462             0             3  46073.601563   2816.182617    -80.622772    726.846313   -806.657715     -2.390851   -394.475586      1.385065    -836.037720              0
LC0010       80003470             0             3  46204.148438   2815.289795    -77.539871   1019.329651   -896.666260     -5.368841   -842.434753      4.444050   -1172.543091              0
LC0010       80003472             0             3  46165.550781   2815.572510    -78.374924   1006.863770   -886.693848    -11.650294   -844.489807     27.752430   -1130.325439              0
LC0010       80003473             0             3  46184.851563   2815.429932    -77.957375    972.823120   -881.130920     -7.681926   -825.263855     10.804534   -1109.980347              0
LC0010       80003484             0             3  46261.953125   2814.860352    -76.287476   1067.879028   -878.525574     -4.333063   -903.433411      1.916908   -1229.520264              0
LC0010       80003485             0             3  46281.250000   2814.720215    -75.870003    985.793030   -803.016235     -4.883944   -895.019409      4.546019   -1133.700317              0
LC0010       80003488             0             3  46223.425781   2815.147461    -77.122375   1051.601807   -909.199829     -4.184259   -841.187988      2.362270   -1210.132568              0
LC0010       80003489             0             3  46242.675781   2815.002686    -76.704895   1063.044067   -906.641907     -3.882497   -848.962463      1.814982   -1222.857788              0
LC0010       80003494             0             3  45841.125000   2817.707520    -86.377502    551.363647   -610.160217     -1.395719   -242.198349      1.591139    -627.451233              0
LC0010       80003495             0             3  45822.578125   2817.139893   -103.397400    514.399719   -574.708557     -4.341943   -282.656464      9.423790    -584.552734              0
LC0010       80003498             0             3  45785.574219   2817.602539    -98.828796    452.139862   -511.670349     -2.281794   -335.126984      1.086097    -512.281006              0
LC0010       80003757             0             3  46771.398438   2807.012695    -64.123299    648.694702   -715.482788     -2.031627   -291.846649      0.637772    -739.616699              0
LC0010       80003759             0             3  46804.398438   2806.502686    -63.328598    578.011475   -625.764648     -2.670172   -456.712189      2.055458    -653.686096              0
LC0010       80003765             0             3  46705.273438   2808.044922    -65.715500    721.157959   -763.563904     -0.709558    -95.257370      0.119708    -764.098633              0
LC0010       80003767             0             3  46738.398438   2807.522461    -64.917976    689.528687   -749.591797     -1.207516   -160.311798      0.281530    -754.323242              0
LC0010       80003773             0             3  46639.300781   2809.057617    -67.302025    773.851318   -784.823059     -0.257468    -61.803181      0.017195    -797.402771              0
LC0010       80003775             0             3  46672.222656   2808.554932    -66.510201    747.732239   -771.706604     -0.400501    -67.726913      0.049094    -777.111633              0
LC0010       80003781             0             3  46573.300781   2810.102539    -68.892273    788.752930   -809.367004     -0.441115   -115.515053      0.045608    -831.471680              0
LC0010       80003783             0             3  46606.300781   2809.569824    -68.096703    792.013672   -797.606750     -0.260170    -74.667061      0.027792    -817.909180              0
LC0010       80003792             0             3  46324.125000   2813.944824    -74.787399   1223.865601   -801.670654     -4.641201   -332.209534     85.064339   -1192.664917              0
LC0010       80003795             0             3  46301.976563   2814.325195    -75.348602    937.563660   -700.179077     -3.554491   -573.912231     11.909479   -1031.122803              0
LC0010       80003798             0             3  46346.222656   2813.734863    -74.298904   1351.252808  -1007.935242     -4.654540   -502.257019     26.874397   -1400.543945              0
LC0010       80003799             0             3  46368.398438   2813.415039    -73.796806   1117.363892   -953.436523     -1.124635   -427.162231      0.786327   -1197.739868              0
LC0010       80003808             0             3  46390.648438   2813.067627    -73.269005   1034.478638   -939.427490     -0.686899   -266.834503      0.627626   -1088.496948              0
LC0010       80003809             0             3  46412.851563   2812.702637    -72.737778    975.928223   -924.268250     -0.406897   -188.872818      0.398912   -1019.492676              0
LC0010       80003818             0             3  46457.449219   2811.979980    -71.667778    900.193298   -891.353760     -0.196972   -108.308655      0.143438    -932.129150              0
LC0010       80003819             0             3  46435.078125   2812.339844    -72.204803    932.293701   -907.065796     -0.275091   -138.923309      0.245865    -968.645630              0
LC0010       80003820             0             3  46479.527344   2811.617676    -71.138573    873.272583   -877.145874     -0.222995    -94.540977      0.077379    -904.857178              0
LC0010       80003821             0             3  46501.425781   2811.252686    -70.613579    846.485901   -861.059448     -0.190080    -92.732239      0.038906    -880.727417              0
LC0010       80003832             0             3  46523.574219   2810.887695    -70.083328    819.602783   -843.408203     -0.187400   -104.711777      0.017157    -860.125427              0
LC0010       80003833             0             3  46545.722656   2810.542480    -69.554527    792.393555   -823.200134     -0.211828   -129.476715      0.030083    -841.993408              0
LC0011       80002671             0             4  45661.550781   2817.709961   -101.844002    399.386536    434.034454      0.515492    173.420761    453.530548      -0.024197              0
LC0011       80002673             0             4  45595.296875   2817.679932   -103.433258    402.546204    445.389435      0.217867    121.978256    448.620453      -0.001693              0
LC0011       80002675             0             4  45529.050781   2817.647461   -105.022751    414.256622    454.334167      0.100707     98.526184    454.584747      -0.012691              0
LC0011       80002677             0             4  45462.796875   2817.612549   -106.612244    416.549835    455.050018      0.058969     94.590782    455.556274      -0.024507              0
LC0011       80002679             0             4  45396.550781   2817.582764   -108.201492    410.465820    449.086517      0.125343    107.711739    452.566162      -0.013538              0
LC0011       80002681             0             4  45330.296875   2817.552490   -109.790756    408.568390    447.531677      0.530604    173.570602    463.911377      -0.015008              0
LC0011       80002683             0             4  45264.050781   2817.520020   -111.380249    450.064423    421.442047      1.814410    276.694305    512.775574      -0.998167              0
LC0011       80002698             0             4  45727.800781   2817.742676   -100.254745    538.186157    451.016479      1.153805    275.401154    592.551270      -0.744531              0
LC0011       80003020             0             4  46969.953125   2802.587646    -59.343903    486.063812    509.980164      0.432618     54.068913    510.712616      -0.000603              0
LC0011       80003021             0             4  47003.101563   2801.772461    -58.546703    489.871613    504.873169      0.510119     45.307770    509.267822      -0.000945              0
LC0011       80003022             0             4  47036.250000   2800.959961    -57.749527    484.037781    498.661163      0.536026     57.518307    506.983643      -0.000965              0
LC0011       80003023             0             4  47069.351563   2800.147461    -56.952351    451.262726    486.435516      0.608190     99.947945    491.398956      -0.004537              0
LC0011       80003062             0             4  46903.750000   2804.209961    -60.938274    492.458374    525.681458      0.495411    142.741318    543.130676      -0.055463              0
LC0011       80003063             0             4  46936.851563   2803.399902    -60.141102    484.689606    518.257385      0.439908     82.981285    520.244934      -0.013321              0
LC0011       80003084             0             4  46837.453125   2805.837402    -62.532650    542.994751    494.110504      2.780601    401.839081    623.714966      -2.070013              0
LC0011       80003085             0             4  46870.601563   2805.022705    -61.735447    516.622742    522.002014      0.892769    256.158203    585.344666      -0.230134              0
LC0011       80003448             0             4  45933.699219   2817.097656    -84.088829    557.984924    593.701538      0.761243    241.512650    631.370422      -0.060078              0
LC0011       80003451             0             4  46040.675781   2816.397461    -81.438248    626.037964    690.742920      0.902207    317.516785    718.482422      -0.068863              0
LC0011       80003452             0             4  46139.449219   2815.750000    -78.991570    784.218262    805.022888      3.567768    740.365173    836.435974      -1.710827              0
LC0011       80003454             0             4  45884.324219   2817.422607    -85.312073    536.449219    559.739136      1.104738    277.114380    612.293884      -0.180736              0
LC0011       80003457             0             4  45974.851563   2816.827637    -83.069397    580.026672    625.347229      0.726368    240.622589    655.919006      -0.042547              0
LC0011       80003458             0             4  46007.750000   2816.612549    -82.253799    602.285583    656.539551      0.758305    266.792572    685.078613      -0.042475              0
LC0011       80003461             0             4  46106.523438   2815.964844    -79.807228    679.799072    757.225281      2.056302    499.578461    776.647461      -0.639069              0
LC0011       80003462             0             4  46073.601563   2816.182617    -80.622772    651.822388    725.902344      1.279654    404.622284    752.476440      -0.173296              0
LC0011       80003470             0             4  46204.148438   2815.289795    -77.539871    967.938232    808.368408      2.543387    818.512573   1115.857422      -0.702054              0
LC0011       80003472             0             4  46165.550781   2815.572510    -78.374924    918.954346    813.307251      3.635664    850.862915   1054.274292      -1.837608              0
LC0011       80003473             0             4  46184.851563   2815.429932    -77.957375    903.903870    797.788208      2.885353    790.061890   1042.103271      -1.089774              0
LC0011       80003484             0             4  46261.953125   2814.860352    -76.287476   1005.610229    780.179016      3.942013    876.499817   1156.642456      -1.555256              0
LC0011       80003485             0             4  46281.250000   2814.720215    -75.870003    946.321533    707.752808      4.986334    918.352722   1088.280518      -4.420299              0
LC0011       80003488             0             4  46223.425781   2815.147461    -77.122375   1001.013306    815.926147      2.515217    817.482544   1150.612183      -0.684102              0
LC0011       80003489             0             4  46242.675781   2815.002686    -76.704895   1011.796021    810.915771      2.972370    828.527954   1161.795410      -0.933946              0
LC0011       80003494             0             4  45841.125000   2817.707520    -86.377502    515.492126    535.607056      1.783519    333.904449    593.009216      -1.968723              0
LC0011       80003495             0             4  45822.578125   2817.139893   -103.397400    496.438110    498.556427      5.309949    376.462860    556.758606     -11.849232              0
LC0011       80003498             0             4  45785.574219   2817.602539    -98.828796    433.225342    445.561371      2.788009    395.492096    473.987427      -1.377625              0
LC0011       80003757             0             4  46771.398438   2807.012695    -64.123299    609.627136    649.537109      2.159497    281.101593    692.634338      -0.788438              0
LC0011       80003759             0             4  46804.398438   2806.502686    -63.328598    560.796631    568.769531      2.852106    458.190704    639.138672      -2.596473              0
LC0011       80003765             0             4  46705.273438   2808.044922    -65.715500    651.829773    694.281494      0.790176     96.848335    694.876526      -0.152338              0
LC0011       80003767             0             4  46738.398438   2807.522461    -64.917976    631.905457    681.454895      1.298494    159.468765    693.028442      -0.340587              0
LC0011       80003773             0             4  46639.300781   2809.057617    -67.302025    692.822876    713.153931      0.317035     70.123802    721.693237      -0.024287              0
LC0011       80003775             0             4  46672.222656   2808.554932    -66.510201    671.416687    701.635254      0.471317     72.552795    703.958740      -0.066913              0
LC0011       80003781             0             4  46573.300781   2810.102539    -68.892273    701.350952    731.749756      0.519569    134.710739    751.799133      -0.050607              0
LC0011       80003783             0             4  46606.300781   2809.569824    -68.096703    707.282104    723.435974      0.323164     87.722694    740.213074      -0.034395              0
LC0011       80003792             0             4  46324.125000   2813.944824    -74.787399   1182.555420    704.234009      4.653344    315.039642   1125.358032    -122.102737              0
LC0011       80003795             0             4  46301.976563   2814.325195    -75.348602    937.752075    591.893066      3.896571    602.661438   1012.907410     -11.678232              0
LC0011       80003798             0             4  46346.222656   2813.734863    -74.298904   1293.760010    919.318970      4.710493    504.620239   1333.813354     -32.169994              0
LC0011       80003799             0             4  46368.398438   2813.415039    -73.796806   1040.973999    858.830994      1.119002    432.235352   1117.185059      -0.771832              0
LC0011       80003808             0             4  46390.648438   2813.067627    -73.269005    946.863831    848.108215      0.709113    275.653381   1002.017944      -0.586345              0
LC0011       80003809             0             4  46412.851563   2812.702637    -72.737778    883.646667    836.240662      0.451306    199.318130    931.279053      -0.367943              0
LC0011       80003818             0             4  46457.449219   2811.979980    -71.667778    806.174744    808.896667      0.281456    118.872284    844.623840      -0.129430              0
LC0011       80003819             0             4  46435.078125   2812.339844    -72.204803    838.534729    822.203857      0.340048    149.622269    880.545532      -0.224536              0
LC0011       80003820             0             4  46479.527344   2811.617676    -71.138573    779.308289    796.415039      0.323388    105.907005    818.115845      -0.068998              0
LC0011       80003821             0             4  46501.425781   2811.252686    -70.613579    752.855103    781.624878      0.303130    105.468582    794.846313      -0.028396              0
LC0011       80003832             0             4  46523.574219   2810.887695    -70.083328    724.996216    764.419128      0.309929    120.681915    774.181885      -0.005068              0
LC0011       80003833             0             4  46545.722656   2810.542480    -69.554527    695.165771    744.009766      0.344284    149.960434    754.456970      -0.015470              0
LC0012       80002671             0             5  45661.550781   2817.709961   -101.844002    400.263214    434.502106      0.516119    173.353195    454.374939      -0.024409              0
LC0012       80002673             0             5  45595.296875   2817.679932   -103.433258    403.089142    445.760162      0.218805    122.011971    449.148773      -0.001641              0
LC0012       80002675             0             5  45529.050781   2817.647461   -105.022751    414.567291    454.586090      0.101420     98.496719    454.879486      -0.012515              0
LC0012       80002677             0             5  45462.796875   2817.612549   -106.612244    416.650177    455.217743      0.059588     94.560852    455.667542      -0.024284              0
LC0012       80002679             0             5  45396.550781   2817.582764   -108.201492    410.369812    449.189697      0.125944    107.701881    452.512665      -0.013354              0
LC0012       80002681             0             5  45330.296875   2817.552490   -109.790756    408.128998    447.523804      0.530643    173.474731    463.503510      -0.015028              0
LC0012       80002683             0             5  45264.050781   2817.520020   -111.380249    449.090393    421.481995      1.812824    276.414246    511.843445      -0.993297              0
LC0012       80002698             0             5  45727.800781   2817.742676   -100.254745    540.010376    452.027924      1.154610    275.488281    594.239014      -0.749365              0
LC0012       80003020             0             5  46969.953125   2802.587646    -59.343903    487.518250    511.452606      0.433358     54.015102    512.161438      -0.000678              0
LC0012       80003021             0             5  47003.101563   2801.772461    -58.546703    491.157623    506.290131      0.510204     45.288078    510.590088      -0.000946              0
LC0012       80003022             0             5  47036.250000   2800.959961    -57.749527    485.220276    500.022003      0.536125     57.456406    508.204071      -0.000925              0
LC0012       80003023             0             5  47069.351563   2800.147461    -56.952351    452.586121    487.769165      0.607751     99.642914    492.664642      -0.004464              0
LC0012       80003062             0             5  46903.750000   2804.209961    -60.938274    494.058533    527.236450      0.496663    142.435730    544.680176      -0.056115              0
LC0012       80003063             0             5  46936.851563   2803.399902    -60.141102    486.282562    519.765320      0.440763     82.824440    521.784729      -0.013679              0
LC0012       80003084             0             5  46837.453125   2805.837402    -62.532650    544.351318    496.111755      2.780711    401.299805    625.226440      -2.069488              0
LC0012       80003085             0             5  46870.601563   2805.022705    -61.735447    518.024658    523.654968      0.893014    255.376068    586.723022      -0.231775              0
LC0012       80003448             0             5  45933.699219   2817.097656    -84.088829    559.104431    594.658264      0.766135    241.813675    632.564514      -0.061684              0
LC0012       80003451             0             5  46040.675781   2816.397461    -81.438248    627.461487    692.140198      0.911097    318.169342    720.089111      -0.071687              0
LC0012       80003452             0             5  46139.449219   2815.750000    -78.991570    786.182556    806.786926      3.648435    741.854553    838.834900      -1.813740              0
LC0012       80003454             0             5  45884.324219   2817.422607    -85.312073    537.516846    560.534058      1.110691    277.383026    613.427795      -0.183953              0
LC0012       80003457             0             5  45974.851563   2816.827637    -83.069397    581.238586    626.459656      0.731342    241.013016    657.235779      -0.043824              0
LC0012       80003458             0             5  46007.750000   2816.612549    -82.253799    603.591187    657.788452      0.764156    267.288483    686.523865      -0.043922              0
LC0012       80003461             0             5  46106.523438   2815.964844    -79.807228    681.468384    758.870422      2.090851    500.819946    778.543396      -0.669639              0
LC0012       80003462             0             5  46073.601563   2816.182617    -80.622772    653.359375    727.438843      1.295723    405.510040    754.244690      -0.180975              0
LC0012       80003470             0             5  46204.148438   2815.289795    -77.539871    970.413330    810.250793      2.578195    820.137085   1118.662598      -0.724914              0
LC0012       80003472             0             5  46165.550781   2815.572510    -78.374924    921.390137    815.064148      3.725390    852.579468   1057.033081      -1.950205              0
LC0012       80003473             0             5  46184.851563   2815.429932    -77.957375    906.261108    799.600464      2.941212    791.897400   1044.785400      -1.139992              0
LC0012       80003484             0             5  46261.953125   2814.860352    -76.287476   1007.605469    782.403931      3.950030    876.689087   1158.867798      -1.564739              0
LC0012       80003485             0             5  46281.250000   2814.720215    -75.870003    948.110718    710.213196      4.992368    919.283142   1090.335938      -4.428799              0
LC0012       80003488             0             5  46223.425781   2815.147461    -77.122375   1003.628357    817.886963      2.537120    818.782654   1153.520630      -0.697673              0
LC0012       80003489             0             5  46242.675781   2815.002686    -76.704895   1014.365417    813.019592      2.985819    829.408447   1164.625732      -0.944597              0
LC0012       80003494             0             5  45841.125000   2817.707520    -86.377502    516.427673    536.206909      1.788300    333.942322    594.052917      -1.973616              0
LC0012       80003495             0             5  45822.578125   2817.139893   -103.397400    497.282867    499.155853      5.314840    376.250793    557.876526     -11.892693              0
LC0012       80003498             0             5  45785.574219   2817.602539    -98.828796    433.889923    446.491638      2.790612    395.379089    475.125000      -1.379955              0
LC0012       80003757             0             5  46771.398438   2807.012695    -64.123299    611.206604    651.532166      2.160602    280.269745    694.232300      -0.793948              0
LC0012       80003759             0             5  46804.398438   2806.502686    -63.328598    562.033325    571.062378      2.853380    457.535400    640.671936      -2.604590              0
LC0012       80003765             0             5  46705.273438   2808.044922    -65.715500    653.873169    696.311279      0.792206     96.767380    696.906250      -0.154042              0
LC0012       80003767             0             5  46738.398438   2807.522461    -64.917976    633.803955    683.438354      1.299559    159.235840    694.922119      -0.342738              0
LC0012       80003773             0             5  46639.300781   2809.057617    -67.302025    694.776062    715.221558      0.318736     70.216156    723.713440      -0.024709              0
LC0012       80003775             0             5  46672.222656   2808.554932    -66.510201    673.436584    703.702881      0.473357     72.586761    706.009277      -0.067939              0
LC0012       80003781             0             5  46573.300781   2810.102539    -68.892273    703.505554    733.764954      0.519857    134.606018    753.903076      -0.050973              0
LC0012       80003783             0             5  46606.300781   2809.569824    -68.096703    709.193787    725.477844      0.324183     87.844345    742.205200      -0.034610              0
LC0012       80003792             0             5  46324.125000   2813.944824    -74.787399   1185.488037    706.838196      4.657419    314.558075   1128.004028    -122.598778              0
LC0012       80003795             0             5  46301.976563   2814.325195    -75.348602    941.048584    594.161621      3.908144    603.279541   1016.146973     -11.699086              0
LC0012       80003798             0             5  46346.222656   2813.734863    -74.298904   1296.479004    922.244080      4.713862    504.557587   1336.589233     -32.144138              0
LC0012       80003799             0             5  46368.398438   2813.415039    -73.796806   1043.557251    861.249512      1.122301    432.132629   1119.716797      -0.774766              0
LC0012       80003808             0             5  46390.648438   2813.067627    -73.269005    949.467834    850.478394      0.712414    275.708801   1004.583130      -0.590422              0
LC0012       80003809             0             5  46412.851563   2812.702637    -72.737778    886.222412    838.570251      0.454316    199.429092    933.825867      -0.370949              0
LC0012       80003818             0             5  46457.449219   2811.979980    -71.667778    808.612122    811.167297      0.283699    119.086952    847.082886      -0.130828              0
LC0012       80003819             0             5  46435.078125   2812.339844    -72.204803    841.054993    824.510620      0.342698    149.796402    883.062744      -0.226708              0
LC0012       80003820             0             5  46479.527344   2811.617676    -71.138573    781.637512    798.631714      0.325170    106.152557    820.492126      -0.069858              0
LC0012       80003821             0             5  46501.425781   2811.252686    -70.613579    755.084778    783.786316      0.304216    105.690033    797.129639      -0.028737              0
LC0012       80003832             0             5  46523.574219   2810.887695    -70.083328    727.124878    766.527161      0.310939    120.848495    776.364990      -0.005141              0
LC0012       80003833             0             5  46545.722656   2810.542480    -69.554527    697.187561    746.071777      0.345009    149.866257    756.488220      -0.015592              0
LC0013       80002671             0             6  45661.550781   2817.709961   -101.844002    313.852478   -325.793854     -0.317612   -114.718208      0.011936    -349.407623              0
LC0013       80002673             0             6  45595.296875   2817.679932   -103.433258    351.471100   -333.059753     -0.110446    -74.557022      0.002799    -369.162537              0
LC0013       80002675             0             6  45529.050781   2817.647461   -105.022751    372.689514   -336.804016     -0.030224    -58.761993      0.067095    -380.162476              0
LC0013       80002677             0             6  45462.796875   2817.612549   -106.612244    385.990051   -333.859039      0.011037    -52.708443      1.056737    -386.174805              0
LC0013       80002679             0             6  45396.550781   2817.582764   -108.201492    394.116058   -326.378082     -0.000024    -54.134975      9.202558    -389.525757              0
LC0013       80002681             0             6  45330.296875   2817.552490   -109.790756    412.673798   -324.479736     -0.215240    -91.137589      0.006761    -413.723999              0
LC0013       80002683             0             6  45264.050781   2817.520020   -111.380249    446.793457   -296.831146     -0.939760   -155.374207      4.933403    -448.797607              0
LC0013       80002698             0             6  45727.800781   2817.742676   -100.254745    271.808441   -310.683563     -0.727110   -181.383835      0.188548    -312.392395              0
LC0013       80003020             0             6  46969.953125   2802.587646    -59.343903    315.633453   -304.602783      0.013227    -32.810699      0.047692    -322.715973              0
LC0013       80003021             0             6  47003.101563   2801.772461    -58.546703    302.420105   -298.070099     -0.016434    -24.764803      0.041666    -309.071594              0
LC0013       80003022             0             6  47036.250000   2800.959961    -57.749527    290.599854   -291.503815     -0.026560    -29.194931      0.032964    -300.279358              0
LC0013       80003023             0             6  47069.351563   2800.147461    -56.952351    284.526459   -281.925049     -0.035021    -55.301525      0.018479    -300.939697              0
LC0013       80003062             0             6  46903.750000   2804.209961    -60.938274    368.676514   -322.771149     -0.039684    -94.971985      0.029793    -384.280273              0
LC0013       80003063             0             6  46936.851563   2803.399902    -60.141102    335.958557   -313.978149     -0.005906    -54.528828      0.020707    -346.445984              0
LC0013       80003084             0             6  46837.453125   2805.837402    -62.532650    424.128601   -304.116608     -1.360294   -258.273376      1.508442    -464.426666              0
LC0013       80003085             0             6  46870.601563   2805.022705    -61.735447    407.846222   -324.229065     -0.289724   -178.262146      0.092279    -436.793701              0
LC0013       80003448             0             6  45933.699219   2817.097656    -84.088829    404.942780   -460.482086     -0.609072   -162.610947      0.116850    -460.926483              0
LC0013       80003451             0             6  46040.675781   2816.397461    -81.438248    475.704803   -547.382324     -1.492965   -282.743347      0.728001    -548.446167              0
LC0013       80003452             0             6  46139.449219   2815.750000    -78.991570    744.911987   -631.905457    -14.517056   -677.415955     49.894951    -750.312561              0
LC0013       80003454             0             6  45884.324219   2817.422607    -85.312073    375.575806   -429.707245     -0.781192   -168.275421      0.220856    -430.169037              0
LC0013       80003457             0             6  45974.851563   2816.827637    -83.069397    429.155273   -489.660583     -0.686718   -182.102386      0.143030    -490.117462              0
LC0013       80003458             0             6  46007.750000   2816.612549    -82.253799    450.379364   -517.445862     -0.902963   -221.433670      0.240226    -518.060120              0
LC0013       80003461             0             6  46106.523438   2815.964844    -79.807228    569.325623   -597.080139     -6.263783   -489.336548     11.745780    -597.239014              0
LC0013       80003462             0             6  46073.601563   2816.182617    -80.622772    510.671539   -576.039368     -2.873648   -376.286804      2.598482    -577.125854              0
LC0013       80003470             0             6  46204.148438   2815.289795    -77.539871   1024.116211   -628.993896     -6.396763   -745.695801      9.643429   -1124.230591              0
LC0013       80003472             0             6  46165.550781   2815.572510    -78.374924   1066.197021   -625.598999    -15.842770   -777.124939     67.934624   -1142.731323              0
LC0013       80003473             0             6  46184.851563   2815.429932    -77.957375    985.460876   -617.800720     -9.949071   -754.086548     25.439796   -1086.425537              0
LC0013       80003484             0             6  46261.953125   2814.860352    -76.287476   1046.928589   -615.139832     -3.258379   -700.861145      1.750473   -1128.649170              0
LC0013       80003485             0             6  46281.250000   2814.720215    -75.870003    933.456360   -557.301208     -3.346277   -649.687866      3.757721   -1014.583435              0
LC0013       80003488             0             6  46223.425781   2815.147461    -77.122375   1056.573975   -637.956787     -4.381332   -719.843872      4.180519   -1146.460205              0
LC0013       80003489             0             6  46242.675781   2815.002686    -76.704895   1061.140137   -636.292419     -3.412703   -693.861816      2.259074   -1142.917480              0
LC0013       80003494             0             6  45841.125000   2817.707520    -86.377502    355.589691   -408.406311     -1.184184   -195.560394      1.296955    -409.228729              0
LC0013       80003495             0             6  45822.578125   2817.139893   -103.397400    342.288666   -379.027588     -3.286827   -224.740875      6.219106    -386.808807              0
LC0013       80003498             0             6  45785.574219   2817.602539    -98.828796    322.617462   -319.244751     -1.676215   -251.226135      1.128550    -370.844971              0
LC0013       80003757             0             6  46771.398438   2807.012695    -64.123299    371.124573   -420.547546     -0.995784   -196.478729      0.318286    -427.421783              0
LC0013       80003759             0             6  46804.398438   2806.502686    -63.328598    346.098175   -355.517731     -1.372466   -293.630127      1.020309    -391.577667              0
LC0013       80003765             0             6  46705.273438   2808.044922    -65.715500    477.850281   -461.967712     -0.165587    -66.311714      0.050361    -494.093597              0
LC0013       80003767             0             6  46738.398438   2807.522461    -64.917976    424.818207   -447.542145     -0.475363   -107.517197      0.132051    -463.310913              0
LC0013       80003773             0             6  46639.300781   2809.057617    -67.302025    552.831177   -487.922424      0.075126    -45.356701     12.999421    -546.212463              0
LC0013       80003775             0             6  46672.222656   2808.554932    -66.510201    518.845764   -473.244263     -0.004190    -49.168690      0.017848    -520.033386              0
LC0013       80003781             0             6  46573.300781   2810.102539    -68.892273    584.956299   -516.700623      0.030664    -78.185371      0.054234    -588.236694              0
LC0013       80003783             0             6  46606.300781   2809.569824    -68.096703    577.620605   -502.816925      0.081018    -54.182732     13.713055    -570.638672              0
LC0013       80003792             0             6  46324.125000   2813.944824    -74.787399   1077.786743   -555.375244     -3.302768   -239.102676    184.283905    -975.997009              0
LC0013       80003795             0             6  46301.976563   2814.325195    -75.348602    887.509521   -478.832520     -2.051193   -398.977905     17.276003    -884.711670              0
LC0013       80003798             0             6  46346.222656   2813.734863    -74.298904   1131.206421   -696.056152     -3.217203   -361.535400     71.900597   -1105.569580              0
LC0013       80003799             0             6  46368.398438   2813.415039    -73.796806    934.965820   -653.793396     -0.568734   -312.289703      0.998083    -945.383118              0
LC0013       80003808             0             6  46390.648438   2813.067627    -73.269005    850.446777   -639.411560     -0.183512   -199.212860      7.253822    -846.553772              0
LC0013       80003809             0             6  46412.851563   2812.702637    -72.737778    787.730774   -624.642090      0.040493   -143.904800     12.505509    -781.275146              0
LC0013       80003818             0             6  46457.449219   2811.979980    -71.667778    700.740112   -593.567810      0.246226    -83.604012     15.876053    -692.710999              0
LC0013       80003819             0             6  46435.078125   2812.339844    -72.204803    738.751709   -608.667114      0.163084   -107.137032     15.241322    -730.970398              0
LC0013       80003820             0             6  46479.527344   2811.617676    -71.138573    668.598816   -579.555237      0.256453    -71.536926     11.976013    -662.622437              0
LC0013       80003821             0             6  46501.425781   2811.252686    -70.613579    639.651245   -564.636841      0.292504    -67.420135      6.193917    -637.002380              0
LC0013       80003832             0             6  46523.574219   2810.887695    -70.083328    614.989807   -548.944275      0.279494    -72.740921      1.406535    -617.107910              0
LC0013       80003833             0             6  46545.722656   2810.542480    -69.554527    596.075439   -531.993408      0.239686    -85.975800      0.764063    -603.185120              0
LC0014       80002671             0             7  45661.550781   2817.709961   -101.844002     70.707695     63.628063      0.061751     21.278273     75.116074      -0.004603              0
LC0014       80002673             0             7  45595.296875   2817.679932   -103.433258     79.558655     65.931099      0.025814     14.908580     79.991844      -0.001835              0
LC0014       80002675             0             7  45529.050781   2817.647461   -105.022751     84.283958     66.842163      0.009428     11.599171     82.295380      -3.851631              0
LC0014       80002677             0             7  45462.796875   2817.612549   -106.612244     87.636398     66.508278      0.000006      9.997568     83.774727      -7.275706              0
LC0014       80002679             0             7  45396.550781   2817.582764   -108.201492     90.419624     65.481567     -0.000021      9.604616     85.033669      -9.952854              0
LC0014       80002681             0             7  45330.296875   2817.552490   -109.790756     95.684677     65.411194      0.029728     14.272614     90.079575     -10.366158              0
LC0014       80002683             0             7  45264.050781   2817.520020   -111.380249    103.663811     61.980572      0.146102     24.784010     97.782707     -10.976193              0
LC0014       80002698             0             7  45727.800781   2817.742676   -100.254745     53.925114     60.665646      0.135407     33.353756     62.228695      -0.030785              0
LC0014       80003020             0             7  46969.953125   2802.587646    -59.343903     52.043415     45.474445     -0.020248      6.595897     52.044888      -0.195483              0
LC0014       80003021             0             7  47003.101563   2801.772461    -58.546703     48.028294     43.793594     -0.014229      5.130273     48.319599      -0.049812              0
LC0014       80003022             0             7  47036.250000   2800.959961    -57.749527     44.870422     42.128609     -0.011003      6.017099     45.930656      -0.015793              0
LC0014       80003023             0             7  47069.351563   2800.147461    -56.952351     44.850628     39.929161     -0.009095     11.340479     46.879135      -0.009498              0
LC0014       80003062             0             7  46903.750000   2804.209961    -60.938274     65.824333     49.735798     -0.010957     17.554253     66.305367      -0.018616              0
LC0014       80003063             0             7  46936.851563   2803.399902    -60.141102     57.708942     47.677444     -0.017058     10.496799     57.857536      -0.067485              0
LC0014       80003084             0             7  46837.453125   2805.837402    -62.532650     79.534424     47.603275      0.226402     45.002258     83.640244      -0.493660              0
LC0014       80003085             0             7  46870.601563   2805.022705    -61.735447     75.034073     50.502407      0.032718     31.450480     77.276138      -0.018404              0
LC0014       80003448             0             7  45933.699219   2817.097656    -84.088829     80.843140     92.288742      0.150370     34.535572     92.357430      -0.043521              0
LC0014       80003451             0             7  46040.675781   2816.397461    -81.438248     96.471725    110.211967      0.411522     66.586517    110.220978      -0.268597              0
LC0014       80003452             0             7  46139.449219   2815.750000    -78.991570    177.996323    124.955849      4.361435    155.075623    180.039230     -19.316523              0
LC0014       80003454             0             7  45884.324219   2817.422607    -85.312073     74.965836     85.632339      0.186007     33.095287     85.767723      -0.079978              0
LC0014       80003457             0             7  45974.851563   2816.827637    -83.069397     85.732811     98.499908      0.173447     41.242615     98.533836      -0.050348              0
LC0014       80003458             0             7  46007.750000   2816.612549    -82.253799     90.345474    104.221947      0.236498     51.544334    104.236542      -0.085104              0
LC0014       80003461             0             7  46106.523438   2815.964844    -79.807228    124.875771    118.706436      1.844178    115.666740    122.820129      -4.462114              0
LC0014       80003462             0             7  46073.601563   2816.182617    -80.622772    106.246819    115.577957      0.822337     88.614304    115.589745      -0.985102              0
LC0014       80003470             0             7  46204.148438   2815.289795    -77.539871    246.210022    121.098793      1.828514    164.621323    258.445251      -4.901799              0
LC0014       80003472             0             7  46165.550781   2815.572510    -78.374924    270.920197    121.267525      4.776086    176.282364    274.162994     -29.718737              0
LC0014       80003473             0             7  46184.851563   2815.429932    -77.957375    241.084457    119.194870      2.946167    171.625824    254.532883     -11.667961              0
LC0014       80003484             0             7  46261.953125   2814.860352    -76.287476    245.776428    118.997231      0.654494    132.261246    247.792068      -0.648970              0
LC0014       80003485             0             7  46281.250000   2814.720215    -75.870003    215.688110    109.059929      0.583547    114.720222    218.502533      -1.156103              0
LC0014       80003488             0             7  46223.425781   2815.147461    -77.122375    253.346573    122.670601      1.172762    153.491272    260.898773      -2.378987              0
LC0014       80003489             0             7  46242.675781   2815.002686    -76.704895    253.134781    122.627403      0.807556    140.536667    256.658203      -1.085531              0
LC0014       80003494             0             7  45841.125000   2817.707520    -86.377502     71.489418     80.193474      0.250948     33.291256     81.679611      -0.308093              0
LC0014       80003495             0             7  45822.578125   2817.139893   -103.397400     68.823776     73.912781      0.616478     35.779655     77.931427      -1.366436              0
LC0014       80003498             0             7  45785.574219   2817.602539    -98.828796     72.283264     63.291962      0.303967     43.276718     81.394073      -0.316880              0
LC0014       80003757             0             7  46771.398438   2807.012695    -64.123299     64.465210     68.865677      0.162521     33.940601     73.840973      -0.064754              0
LC0014       80003759             0             7  46804.398438   2806.502686    -63.328598     61.744419     57.205219      0.239476     51.005173     71.072411      -0.182084              0
LC0014       80003765             0             7  46705.273438   2808.044922    -65.715500     87.763405     77.885185      0.011469     12.556749     88.650597      -0.010501              0
LC0014       80003767             0             7  46738.398438   2807.522461    -64.917976     75.981712     74.425156      0.067970     19.390825     81.431992      -0.026414              0
LC0014       80003773             0             7  46639.300781   2809.057617    -67.302025    104.235451     84.339912     -0.031563      9.220155    100.548241      -7.018968              0
LC0014       80003775             0             7  46672.222656   2808.554932    -66.510201     96.844528     80.850136     -0.016712      9.876279     94.757370      -4.045450              0
LC0014       80003781             0             7  46573.300781   2810.102539    -68.892273    113.496063     91.220284     -0.035002     13.742677    110.569687      -5.645706              0
LC0014       80003783             0             7  46606.300781   2809.569824    -68.096703    109.863892     87.873657     -0.037845     10.571550    105.916420      -7.512102              0
LC0014       80003792             0             7  46324.125000   2813.944824    -74.787399    226.363144    108.640190      0.586220     38.852016    197.414948     -49.962044              0
LC0014       80003795             0             7  46301.976563   2814.325195    -75.348602    201.169464     95.276001      0.332261     65.843506    187.186127     -25.085041              0
LC0014       80003798             0             7  46346.222656   2813.734863    -74.298904    226.908951    130.955475      0.558038     61.240650    214.730484     -24.389338              0
LC0014       80003799             0             7  46368.398438   2813.415039    -73.796806    189.305847    122.581848      0.089188     54.022495    185.016830      -8.170307              0
LC0014       80003808             0             7  46390.648438   2813.067627    -73.269005    172.241348    119.110168      0.012996     35.665840    166.241959     -11.322181              0
LC0014       80003809             0             7  46412.851563   2812.702637    -72.737778    159.680038    115.604591     -0.030816     26.514011    153.613937     -11.440096              0
LC0014       80003818             0             7  46457.449219   2811.979980    -71.667778    141.688889    108.545792     -0.076291     15.947860    135.708237     -11.269277              0
LC0014       80003819             0             7  46435.078125   2812.339844    -72.204803    149.677704    112.025932     -0.057457     20.224871    143.634567     -11.390552              0
LC0014       80003820             0             7  46479.527344   2811.617676    -71.138573    134.653152    105.234657     -0.081251     13.577304    129.144638     -10.406916              0
LC0014       80003821             0             7  46501.425781   2811.252686    -70.613579    128.342773    101.911819     -0.089322     12.422565    123.475937      -9.251020              0
LC0014       80003832             0             7  46523.574219   2810.887695    -70.083328    122.660362     98.498451     -0.084860     12.880770    118.755646      -7.502254              0
LC0014       80003833             0             7  46545.722656   2810.542480    -69.554527    117.888084     95.008743     -0.074262     14.626650    115.044472      -5.571498              0
LC0015       80002671             0             8  45661.550781   2817.709961   -101.844002    399.876251    442.349945      0.509612    171.848755    455.028625      -0.023332              0
LC0015       80002673             0             8  45595.296875   2817.679932   -103.433258    408.704895    454.072205      0.217716    120.879311    455.249268      -0.001256              0
LC0015       80002675             0             8  45529.050781   2817.647461   -105.022751    422.108429    462.152832      0.099475     96.967758    462.175262      -0.012268              0
LC0015       80002677             0             8  45462.796875   2817.612549   -106.612244    425.882019    462.259674      0.055486     92.589760    463.990082      -0.024772              0
LC0015       80002679             0             8  45396.550781   2817.582764   -108.201492    421.179718    456.009521      0.117250    105.032059    461.929108      -0.014797              0
LC0015       80002681             0             8  45330.296875   2817.552490   -109.790756    419.538971    453.504425      0.505232    168.778336    473.711609      -0.012749              0
LC0015       80002683             0             8  45264.050781   2817.520020   -111.380249    457.019318    426.897156      1.733465    265.237244    518.191772      -0.973221              0
LC0015       80002698             0             8  45727.800781   2817.742676   -100.254745    524.756165    459.287842      1.126404    268.558411    582.223206      -0.657276              0
LC0015       80003020             0             8  46969.953125   2802.587646    -59.343903    491.559540    515.341553      0.410425     52.446064    515.700989      -0.000832              0
LC0015       80003021             0             8  47003.101563   2801.772461    -58.546703    492.713623    509.747711      0.482097     44.296955    512.416992      -0.000566              0
LC0015       80003022             0             8  47036.250000   2800.959961    -57.749527    485.141998    503.049133      0.508085     56.358376    508.712616      -0.000570              0
LC0015       80003023             0             8  47069.351563   2800.147461    -56.952351    453.749115    490.551697      0.572710     97.040688    493.584320      -0.003025              0
LC0015       80003062             0             8  46903.750000   2804.209961    -60.938274    502.578461    531.935608      0.470301    137.130325    551.175232      -0.054285              0
LC0015       80003063             0             8  46936.851563   2803.399902    -60.141102    492.903107    523.990784      0.417216     80.004654    527.018616      -0.013540              0
LC0015       80003084             0             8  46837.453125   2805.837402    -62.532650    548.354614    504.292053      2.656686    385.566925    628.822937      -1.953304              0
LC0015       80003085             0             8  46870.601563   2805.022705    -61.735447    525.728943    529.434692      0.848137    245.589127    592.691162      -0.222665              0
LC0015       80003448             0             8  45933.699219   2817.097656    -84.088829    564.299622    605.596436      0.786331    240.596802    638.775940      -0.073753              0
LC0015       80003451             0             8  46040.675781   2816.397461    -81.438248    637.121704    707.011963      0.997861    324.805695    731.776306      -0.106551              0
LC0015       80003452             0             8  46139.449219   2815.750000    -78.991570    807.149353    823.988831      4.777470    762.037231    855.749817      -3.565408              0
LC0015       80003454             0             8  45884.324219   2817.422607    -85.312073    540.548584    570.015991      1.126274    273.631439    617.017273      -0.203370              0
LC0015       80003457             0             8  45974.851563   2816.827637    -83.069397    588.223816    638.837219      0.758168    242.206039    665.680603      -0.055218              0
LC0015       80003458             0             8  46007.750000   2816.612549    -82.253799    611.803589    671.384644      0.806392    270.867615    696.563049      -0.058429              0
LC0015       80003461             0             8  46106.523438   2815.964844    -79.807228    695.818787    775.384338      2.551154    516.999817    792.621826      -1.152124              0
LC0015       80003462             0             8  46073.601563   2816.182617    -80.622772    664.786133    743.388733      1.487879    416.165375    767.238892      -0.292029              0
LC0015       80003470             0             8  46204.148438   2815.289795    -77.539871   1014.276062    827.173401      3.005314    841.235291   1166.730469      -1.067827              0
LC0015       80003472             0             8  46165.550781   2815.572510    -78.374924    962.970947    831.300903      4.965453    875.869751   1105.955566      -3.895265              0
LC0015       80003473             0             8  46184.851563   2815.429932    -77.957375    946.992065    816.061890      3.682559    816.365051   1091.533691      -1.956674              0
LC0015       80003484             0             8  46261.953125   2814.860352    -76.287476   1048.717529    801.878723      3.954892    879.054199   1201.958618      -1.612662              0
LC0015       80003485             0             8  46281.250000   2814.720215    -75.870003    975.514893    730.752625      4.939381    914.392334   1121.643311      -4.390450              0
LC0015       80003488             0             8  46223.425781   2815.147461    -77.122375   1050.465454    835.392212      2.767344    835.354919   1202.851685      -0.876201              0
LC0015       80003489             0             8  46242.675781   2815.002686    -76.704895   1060.997070    831.508606      3.082707    839.531616   1212.819946      -1.052189              0
LC0015       80003494             0             8  45841.125000   2817.707520    -86.377502    518.209167    544.259827      1.776915    326.102386    596.063904      -1.905963              0
LC0015       80003495             0             8  45822.578125   2817.139893   -103.397400    495.910583    505.025574      5.193860    366.479767    557.137390     -11.523064              0
LC0015       80003498             0             8  45785.574219   2817.602539    -98.828796    431.028931    453.544861      2.720593    380.976135    473.515350      -1.371611              0
LC0015       80003757             0             8  46771.398438   2807.012695    -64.123299    606.364014    659.162354      2.055925    270.065399    689.473267      -0.760475              0
LC0015       80003759             0             8  46804.398438   2806.502686    -63.328598    551.574951    580.166565      2.716405    438.972137    626.843628      -2.414168              0
LC0015       80003765             0             8  46705.273438   2808.044922    -65.715500    662.918640    704.987976      0.746389     94.592049    705.279053      -0.152400              0
LC0015       80003767             0             8  46738.398438   2807.522461    -64.917976    636.899109    691.213196      1.230647    154.247589    697.979309      -0.331112              0
LC0015       80003773             0             8  46639.300781   2809.057617    -67.302025    709.708313    725.805054      0.293126     70.330559    737.383301      -0.025967              0
LC0015       80003775             0             8  46672.222656   2808.554932    -66.510201    686.123657    713.470154      0.442441     71.868462    717.640991      -0.069208              0
LC0015       80003781             0             8  46573.300781   2810.102539    -68.892273    722.421326    745.622253      0.483186    134.100128    770.852173      -0.050590              0
LC0015       80003783             0             8  46606.300781   2809.569824    -68.096703    725.919006    736.767090      0.297402     88.554848    757.550903      -0.034563              0
LC0015       80003792             0             8  46324.125000   2813.944824    -74.787399   1220.268921    728.566650      4.629233    311.189056   1156.970825    -131.675140              0
LC0015       80003795             0             8  46301.976563   2814.325195    -75.348602    975.731506    615.582275      3.842556    596.363342   1046.092773     -11.864946              0
LC0015       80003798             0             8  46346.222656   2813.734863    -74.298904   1326.518921    942.368225      4.670780    501.036133   1362.656860     -33.428673              0
LC0015       80003799             0             8  46368.398438   2813.415039    -73.796806   1073.774292    879.718018      1.099226    429.603760   1146.228149      -0.798970              0
LC0015       80003808             0             8  46390.648438   2813.067627    -73.269005    979.148071    868.215088      0.687406    274.980286   1030.709473      -0.614207              0
LC0015       80003809             0             8  46412.851563   2812.702637    -72.737778    914.310303    855.569946      0.428702    199.399139    958.737793      -0.390536              0
LC0015       80003818             0             8  46457.449219   2811.979980    -71.667778    832.427002    826.834900      0.252342    120.020355    868.795532      -0.141908              0
LC0015       80003819             0             8  46435.078125   2812.339844    -72.204803    867.088074    840.865601      0.314669    150.355423    906.455872      -0.241801              0
LC0015       80003820             0             8  46479.527344   2811.617676    -71.138573    803.216797    813.585144      0.289669    107.308266    840.501282      -0.075996              0
LC0015       80003821             0             8  46501.425781   2811.252686    -70.613579    774.604065    797.991760      0.264811    106.806931    815.490601      -0.034059              0
LC0015       80003832             0             8  46523.574219   2810.887695    -70.083328    745.099365    780.009033      0.272874    121.742004    793.433838      -0.009372              0
LC0015       80003833             0             8  46545.722656   2810.542480    -69.554527    714.408630    758.869629      0.306970    149.274445    772.580505      -0.022585              0
LC0016       80002671             0             9  45661.550781   2817.709961   -101.844002    528.194946   -587.220703     -0.474130   -166.336899      0.018049    -590.588745              0
LC0016       80002673             0             9  45595.296875   2817.679932   -103.433258    547.204346   -593.747009     -0.165725   -110.780060      0.003844    -594.064819              0
LC0016       80002675             0             9  45529.050781   2817.647461   -105.022751    567.193359   -602.727905     -0.051217    -88.827332      0.023986    -605.368408              0
LC0016       80002677             0             9  45462.796875   2817.612549   -106.612244    574.661438   -601.546814      0.002489    -82.052025      0.045906    -608.506165              0
LC0016       80002679             0             9  45396.550781   2817.582764   -108.201492    572.685303   -593.085571     -0.033552    -88.217751      0.039634    -606.440613              0
LC0016       80002681             0             9  45330.296875   2817.552490   -109.790756    578.138855   -595.190613     -0.405752   -150.798294      0.005461    -628.126343              0
LC0016       80002683             0             9  45264.050781   2817.520020   -111.380249    592.867004   -556.632446     -1.678693   -272.384613      0.887401    -659.286926              0
LC0016       80002698             0             9  45727.800781   2817.742676   -100.254745    599.109619   -588.975769     -1.141544   -285.868011      0.415713    -673.818909              0
LC0016       80003020             0             9  46969.953125   2802.587646    -59.343903    627.022095   -653.554077     -0.453242    -57.868893      0.001041    -653.967468              0
LC0016       80003021             0             9  47003.101563   2801.772461    -58.546703    627.276306   -646.703247     -0.536624    -45.886578      0.000639    -648.429321              0
LC0016       80003022             0             9  47036.250000   2800.959961    -57.749527    617.660522   -639.060608     -0.555261    -56.692802      0.001398    -642.712097              0
LC0016       80003023             0             9  47069.351563   2800.147461    -56.952351    582.215637   -625.167236     -0.629046   -101.806496      0.002091    -626.240540              0
LC0016       80003062             0             9  46903.750000   2804.209961    -60.938274    640.998718   -674.664673     -0.521621   -162.794769      0.047370    -699.053955              0
LC0016       80003063             0             9  46936.851563   2803.399902    -60.141102    629.416016   -664.523987     -0.465275    -92.875702      0.007970    -669.089050              0
LC0016       80003084             0             9  46837.453125   2805.837402    -62.532650    676.177856   -637.866333     -3.043996   -459.925903      1.986531    -775.737976              0
LC0016       80003085             0             9  46870.601563   2805.022705    -61.735447    663.923157   -671.864929     -0.968689   -301.186798      0.209240    -747.441040              0
LC0016       80003448             0             9  45933.699219   2817.097656    -84.088829    726.697449   -776.228821     -0.780155   -217.751770      0.087657    -803.240662              0
LC0016       80003451             0             9  46040.675781   2816.397461    -81.438248    820.392578   -901.889954     -1.671393   -353.800476      0.552574    -932.690308              0
LC0016       80003452             0             9  46139.449219   2815.750000    -78.991570   1041.529541  -1035.890991    -13.559959   -867.593689     33.366405   -1125.279297              0
LC0016       80003454             0             9  45884.324219   2817.422607    -85.312073    684.726501   -734.828247     -1.016152   -235.166397      0.192517    -764.201965              0
LC0016       80003457             0             9  45974.851563   2816.827637    -83.069397    759.973633   -817.180420     -0.873546   -235.365814      0.106346    -842.974304              0
LC0016       80003458             0             9  46007.750000   2816.612549    -82.253799    789.004944   -857.535889     -1.097094   -280.201538      0.186821    -884.668579              0
LC0016       80003461             0             9  46106.523438   2815.964844    -79.807228    894.415039   -983.249329     -6.125210   -612.552002      8.216225   -1019.967834              0
LC0016       80003462             0             9  46073.601563   2816.182617    -80.622772    852.824524   -946.219482     -2.986825   -470.634949      1.879474    -981.237610              0
LC0016       80003470             0             9  46204.148438   2815.289795    -77.539871   1217.092773  -1052.442627     -6.710664  -1003.163879      5.989677   -1399.035645              0
LC0016       80003472             0             9  46165.550781   2815.572510    -78.374924   1208.943359  -1039.979736    -14.824015  -1006.992920     38.170364   -1354.102661              0
LC0016       80003473             0             9  46184.851563   2815.429932    -77.957375   1162.682373  -1033.752563     -9.709307   -985.725525     14.735187   -1325.875122              0
LC0016       80003484             0             9  46261.953125   2814.860352    -76.287476   1272.510132  -1032.952881     -5.131057  -1062.692871      2.325503   -1463.305908              0
LC0016       80003485             0             9  46281.250000   2814.720215    -75.870003   1171.612427   -945.074158     -5.724774  -1050.382446      5.412161   -1347.380981              0
LC0016       80003488             0             9  46223.425781   2815.147461    -77.122375   1255.902100  -1067.650391     -5.146990   -998.648254      3.098917   -1443.440552              0
LC0016       80003489             0             9  46242.675781   2815.002686    -76.704895   1269.111084  -1065.346069     -4.678584  -1003.728333      2.284394   -1457.705933              0
LC0016       80003494             0             9  45841.125000   2817.707520    -86.377502    640.447571   -710.151978     -1.645001   -280.148102      1.886016    -728.842285              0
LC0016       80003495             0             9  45822.578125   2817.139893   -103.397400    597.788208   -669.172058     -5.055055   -326.023132     11.024732    -679.237488              0
LC0016       80003498             0             9  45785.574219   2817.602539    -98.828796    525.285950   -594.995361     -2.651592   -387.934814      1.286539    -595.376526              0
LC0016       80003757             0             9  46771.398438   2807.012695    -64.123299    751.717468   -833.398987     -2.323210   -333.652283      0.742317    -857.036682              0
LC0016       80003759             0             9  46804.398438   2806.502686    -63.328598    668.925171   -730.320313     -3.054793   -522.896545      2.359816    -756.394348              0
LC0016       80003765             0             9  46705.273438   2808.044922    -65.715500    841.606445   -890.091553     -0.809090   -109.942223      0.143274    -891.075867              0
LC0016       80003767             0             9  46738.398438   2807.522461    -64.917976    802.220459   -873.226135     -1.378101   -184.120453      0.329564    -877.286377              0
LC0016       80003773             0             9  46639.300781   2809.057617    -67.302025    905.640137   -916.091736     -0.289685    -72.322639      0.021742    -932.452637              0
LC0016       80003775             0             9  46672.222656   2808.554932    -66.510201    874.177795   -900.294006     -0.455396    -78.766762      0.060487    -907.813477              0
LC0016       80003781             0             9  46573.300781   2810.102539    -68.892273    926.025818   -945.623657     -0.496040   -133.722412      0.055440    -974.275574              0
LC0016       80003783             0             9  46606.300781   2809.569824    -68.096703    927.843872   -931.448181     -0.291156    -87.437317      0.033656    -957.251770              0
LC0016       80003792             0             9  46324.125000   2813.944824    -74.787399   1454.249146   -943.571716     -5.447952   -387.569916    108.307556   -1411.574707              0
LC0016       80003795             0             9  46301.976563   2814.325195    -75.348602   1119.904053   -823.749878     -4.166147   -671.770813     14.044596   -1225.865479              0
LC0016       80003798             0             9  46346.222656   2813.734863    -74.298904   1600.218994  -1185.385986     -5.452529   -587.620728     33.004215   -1653.946411              0
LC0016       80003799             0             9  46368.398438   2813.415039    -73.796806   1323.634399  -1119.432495     -1.316472   -499.751007      0.949220   -1414.378418              0
LC0016       80003808             0             9  46390.648438   2813.067627    -73.269005   1224.108643  -1102.316895     -0.797734   -312.761047      0.764217   -1284.410767              0
LC0016       80003809             0             9  46412.851563   2812.702637    -72.737778   1153.315796  -1083.936035     -0.466984   -221.766602      0.489426   -1201.860352              0
LC0016       80003818             0             9  46457.449219   2811.979980    -71.667778   1060.827271  -1044.283447     -0.213872   -127.729805      0.179410   -1096.598511              0
LC0016       80003819             0             9  46435.078125   2812.339844    -72.204803   1100.209229  -1063.254272     -0.309048   -163.489716      0.304253   -1140.772949              0
LC0016       80003820             0             9  46479.527344   2811.617676    -71.138573   1027.732788  -1027.057129     -0.239714   -111.520287      0.097689   -1063.367554              0
LC0016       80003821             0             9  46501.425781   2811.252686    -70.613579    995.098389  -1007.651306     -0.197273   -109.039337      0.051274   -1033.960693              0
LC0016       80003832             0             9  46523.574219   2810.887695    -70.083328    962.738037   -986.485107     -0.193937   -122.485275      0.024802   -1008.929993              0
LC0016       80003833             0             9  46545.722656   2810.542480    -69.554527    930.407288   -962.432922     -0.223767   -149.916061      0.041299    -986.862610              0
LC0017       80002671             0            10  45661.550781   2817.709961   -101.844002    305.991547   -319.661102     -0.294925   -104.776062      0.012449    -339.551331              0
LC0017       80002673             0            10  45595.296875   2817.679932   -103.433258    339.336212   -327.174438     -0.114011    -70.048141      0.001224    -357.497162              0
LC0017       80002675             0            10  45529.050781   2817.647461   -105.022751    357.874725   -329.551544     -0.036612    -54.274277      0.039117    -366.320313              0
LC0017       80002677             0            10  45462.796875   2817.612549   -106.612244    369.100769   -326.311890      0.004062    -48.300858      0.297873    -370.924347              0
LC0017       80002679             0            10  45396.550781   2817.582764   -108.201492    375.531036   -319.471375     -0.004446    -49.685642      4.519102    -373.392456              0
LC0017       80002681             0            10  45330.296875   2817.552490   -109.790756    387.212891   -316.153015     -0.183022    -81.138412      0.000183    -390.602875              0
LC0017       80002683             0            10  45264.050781   2817.520020   -111.380249    409.120392   -292.112335     -0.786799   -130.459671      2.696035    -413.728607              0
LC0017       80002698             0            10  45727.800781   2817.742676   -100.254745    272.131836   -312.499878     -0.646370   -159.226944      0.169517    -314.056213              0
LC0017       80003020             0            10  46969.953125   2802.587646    -59.343903    318.597443   -310.791138     -0.025328    -29.094210      0.023126    -325.538666              0
LC0017       80003021             0            10  47003.101563   2801.772461    -58.546703    306.576050   -304.123566     -0.047678    -23.083324      0.022177    -313.309235              0
LC0017       80003022             0            10  47036.250000   2800.959961    -57.749527    294.740936   -297.264618     -0.058770    -27.648149      0.018808    -304.459290              0
LC0017       80003023             0            10  47069.351563   2800.147461    -56.952351    285.360748   -287.804779     -0.063563    -48.977329      0.011635    -301.418182              0
LC0017       80003062             0            10  46903.750000   2804.209961    -60.938274    360.089172   -328.345612     -0.067240    -79.359756      0.024683    -375.245758              0
LC0017       80003063             0            10  46936.851563   2803.399902    -60.141102    335.314545   -319.711639     -0.038788    -46.393192      0.011589    -345.264923              0
LC0017       80003084             0            10  46837.453125   2805.837402    -62.532650    401.024414   -318.813385     -1.184687   -215.534698      1.152970    -439.799927              0
LC0017       80003085             0            10  46870.601563   2805.022705    -61.735447    388.110718   -331.331451     -0.269830   -145.862045      0.090463    -415.385986              0
LC0017       80003448             0            10  45933.699219   2817.097656    -84.088829    399.907501   -452.082886     -0.626664   -152.880295      0.144006    -453.543610              0
LC0017       80003451             0            10  46040.675781   2816.397461    -81.438248    471.247955   -540.708557     -1.500828   -273.646057      0.770214    -543.375427              0
LC0017       80003452             0            10  46139.449219   2815.750000    -78.991570    735.777588   -625.412415    -14.515101   -660.845703     51.066132    -741.393127              0
LC0017       80003454             0            10  45884.324219   2817.422607    -85.312073    370.303925   -420.500122     -0.791183   -155.532181      0.262360    -422.354370              0
LC0017       80003457             0            10  45974.851563   2816.827637    -83.069397    424.411102   -482.052094     -0.701759   -173.764313      0.165014    -483.484772              0
LC0017       80003458             0            10  46007.750000   2816.612549    -82.253799    445.826050   -510.318420     -0.913389   -212.996521      0.262947    -512.077087              0
LC0017       80003461             0            10  46106.523438   2815.964844    -79.807228    562.265259   -591.086243     -6.269437   -477.800171     12.059918    -593.191223              0
LC0017       80003462             0            10  46073.601563   2816.182617    -80.622772    505.327667   -569.713867     -2.879805   -365.841156      2.697860    -572.835632              0
LC0017       80003470             0            10  46204.148438   2815.289795    -77.539871   1004.100708   -623.204834     -6.374807   -725.490234      9.952174   -1102.317749              0
LC0017       80003472             0            10  46165.550781   2815.572510    -78.374924   1041.742432   -619.169189    -15.846523   -758.499573     68.881523   -1116.382202              0
LC0017       80003473             0            10  46184.851563   2815.429932    -77.957375    963.763428   -612.022156     -9.947419   -736.814819     25.955082   -1063.336670              0
LC0017       80003484             0            10  46261.953125   2814.860352    -76.287476   1024.164551   -615.693176     -3.081413   -653.249084      1.744820   -1099.148926              0
LC0017       80003485             0            10  46281.250000   2814.720215    -75.870003    908.969421   -565.384094     -3.132784   -607.341187      3.460882    -987.333374              0
LC0017       80003488             0            10  46223.425781   2815.147461    -77.122375   1039.537720   -632.590393     -4.326389   -694.572327      4.343824   -1125.702637              0
LC0017       80003489             0            10  46242.675781   2815.002686    -76.704895   1045.276978   -633.276733     -3.306401   -660.803772      2.296052   -1121.477173              0
LC0017       80003494             0            10  45841.125000   2817.707520    -86.377502    346.132355   -397.116089     -1.120772   -172.426788      1.202567    -397.528656              0
LC0017       80003495             0            10  45822.578125   2817.139893   -103.397400    324.198547   -366.570953     -2.948259   -193.749878      5.880863    -367.721649              0
LC0017       80003498             0            10  45785.574219   2817.602539    -98.828796    299.312561   -318.279449     -1.497078   -210.955048      1.012063    -344.104370              0
LC0017       80003757             0            10  46771.398438   2807.012695    -64.123299    380.577240   -425.706970     -0.863590   -161.625015      0.311658    -433.382263              0
LC0017       80003759             0            10  46804.398438   2806.502686    -63.328598    342.454346   -370.387543     -1.185279   -243.745804      0.892578    -393.340759              0
LC0017       80003765             0            10  46705.273438   2808.044922    -65.715500    478.685547   -465.119751     -0.169835    -58.454304      0.064818    -493.213684              0
LC0017       80003767             0            10  46738.398438   2807.522461    -64.917976    432.398773   -450.573517     -0.424938    -91.691010      0.135809    -465.689209              0
LC0017       80003773             0            10  46639.300781   2809.057617    -67.302025    544.488770   -491.036865      0.042362    -44.296734      6.098856    -541.405945              0
LC0017       80003775             0            10  46672.222656   2808.554932    -66.510201    514.315918   -476.883606     -0.030956    -45.629765      0.035608    -517.043640              0
LC0017       80003781             0            10  46573.300781   2810.102539    -68.892273    579.848816   -517.465698      0.002931    -75.414566      0.030941    -584.158447              0
LC0017       80003783             0            10  46606.300781   2809.569824    -68.096703    567.550964   -504.861359      0.051084    -54.412170      5.531358    -564.761353              0
LC0017       80003792             0            10  46324.125000   2813.944824    -74.787399   1044.299194   -565.913330     -3.092334   -213.543808    172.786896    -949.356262              0
LC0017       80003795             0            10  46301.976563   2814.325195    -75.348602    878.622253   -491.491394     -2.022221   -369.691437     21.399502    -873.176453              0
LC0017       80003798             0            10  46346.222656   2813.734863    -74.298904   1089.583618   -698.826172     -3.005307   -332.726563     61.591305   -1069.451050              0
LC0017       80003799             0            10  46368.398438   2813.415039    -73.796806    908.085205   -653.203308     -0.571084   -287.600433      0.810356    -919.023499              0
LC0017       80003808             0            10  46390.648438   2813.067627    -73.269005    830.808838   -639.101868     -0.221677   -185.657425      3.314238    -828.863953              0
LC0017       80003809             0            10  46412.851563   2812.702637    -72.737778    773.005981   -624.603271     -0.014786   -135.380539      8.282204    -768.649963              0
LC0017       80003818             0            10  46457.449219   2811.979980    -71.667778    691.182983   -594.424866      0.178039    -81.498634     10.264037    -685.999023              0
LC0017       80003819             0            10  46435.078125   2812.339844    -72.204803    727.284119   -609.193542      0.099353   -102.452568     10.268672    -722.003357              0
LC0017       80003820             0            10  46479.527344   2811.617676    -71.138573    659.980774   -580.486572      0.189711    -71.201538      5.843496    -657.139465              0
LC0017       80003821             0            10  46501.425781   2811.252686    -70.613579    631.201477   -565.515747      0.230010    -67.824432      1.517173    -631.830322              0
LC0017       80003832             0            10  46523.574219   2810.887695    -70.083328    605.200134   -549.713806      0.218349    -73.168282      0.497320    -610.954651              0
LC0017       80003833             0            10  46545.722656   2810.542480    -69.554527    582.140503   -532.678650      0.184348    -83.194397      0.396936    -593.088135              0
LC0018       80002671             0            11  45661.550781   2817.709961   -101.844002     53.181469    -58.021637     -0.061377    -22.271578      0.002094     -60.293022              0
LC0018       80002673             0            11  45595.296875   2817.679932   -103.433258     59.160740    -59.370377     -0.021494    -14.452234      0.000417     -63.610016              0
LC0018       80002675             0            11  45529.050781   2817.647461   -105.022751     62.783394    -60.076500     -0.006359    -11.434547      0.006117     -65.552223              0
LC0018       80002677             0            11  45462.796875   2817.612549   -106.612244     64.952873    -59.563354      0.000831    -10.441555      0.015534     -66.590927              0
LC0018       80002679             0            11  45396.550781   2817.582764   -108.201492     66.001564    -58.169151     -0.002610    -11.068531      0.026417     -67.062286              0
LC0018       80002681             0            11  45330.296875   2817.552490   -109.790756     68.495285    -57.619038     -0.046553    -18.682396      0.000545     -71.008636              0
LC0018       80002683             0            11  45264.050781   2817.520020   -111.380249     74.462440    -52.256905     -0.186927    -30.219463      0.310605     -77.066063              0
LC0018       80002698             0            11  45727.800781   2817.742676   -100.254745     50.300579    -55.781013     -0.138795    -34.285671      0.041813     -57.906830              0
LC0018       80003020             0            11  46969.953125   2802.587646    -59.343903     59.267487    -59.318695     -0.008199     -6.624189      0.003971     -61.407887              0
LC0018       80003021             0            11  47003.101563   2801.772461    -58.546703     57.352779    -58.384739     -0.015463     -5.206873      0.003056     -59.358559              0
LC0018       80003022             0            11  47036.250000   2800.959961    -57.749527     55.337570    -57.394058     -0.017987     -6.476662      0.002810     -58.032383              0
LC0018       80003023             0            11  47069.351563   2800.147461    -56.952351     53.358154    -55.680443     -0.021025    -12.269564      0.001307     -57.734463              0
LC0018       80003062             0            11  46903.750000   2804.209961    -60.938274     68.166878    -62.197300     -0.017706    -19.035944      0.005399     -72.227943              0
LC0018       80003063             0            11  46936.851563   2803.399902    -60.141102     62.463379    -60.809158     -0.011318    -10.886919      0.002153     -65.384163              0
LC0018       80003084             0            11  46837.453125   2805.837402    -62.532650     78.858261    -57.558979     -0.287887    -52.316368      0.290491     -87.560791              0
LC0018       80003085             0            11  46870.601563   2805.022705    -61.735447     75.617546    -62.079807     -0.069060    -35.927895      0.019269     -82.266563              0
LC0018       80003448             0            11  45933.699219   2817.097656    -84.088829     71.533287    -81.424683     -0.101746    -30.252073      0.014329     -81.658142              0
LC0018       80003451             0            11  46040.675781   2816.397461    -81.438248     83.678276    -96.331955     -0.202918    -47.273994      0.066054     -96.551468              0
LC0018       80003452             0            11  46139.449219   2815.750000    -78.991570    120.197487   -112.218506     -1.727467   -113.517319      4.153940    -120.145287              0
LC0018       80003454             0            11  45884.324219   2817.422607    -85.312073     66.559448    -76.177658     -0.137656    -32.898895      0.030281     -76.555946              0
LC0018       80003457             0            11  45974.851563   2816.827637    -83.069397     75.780045    -86.364128     -0.108081    -32.170799      0.016063     -86.536858              0
LC0018       80003458             0            11  46007.750000   2816.612549    -82.253799     79.487015    -91.134064     -0.132774    -37.833504      0.024157     -91.312836              0
LC0018       80003461             0            11  46106.523438   2815.964844    -79.807228     96.888420   -105.639557     -0.771318    -79.736496      1.022862    -105.650169              0
LC0018       80003462             0            11  46073.601563   2816.182617    -80.622772     89.035110   -101.477409     -0.369714    -62.229984      0.227161    -101.653435              0
LC0018       80003470             0            11  46204.148438   2815.289795    -77.539871    165.204895   -112.641861     -0.815736   -126.486443      0.773415    -185.216690              0
LC0018       80003472             0            11  46165.550781   2815.572510    -78.374924    164.668076   -112.222664     -1.868788   -130.604431      5.219236    -183.180054              0
LC0018       80003473             0            11  46184.851563   2815.429932    -77.957375    156.898590   -110.689323     -1.207019   -125.113174      1.997632    -176.817398              0
LC0018       80003484             0            11  46261.953125   2814.860352    -76.287476    171.179245   -109.203308     -0.584014   -129.794037      0.269539    -190.294708              0
LC0018       80003485             0            11  46281.250000   2814.720215    -75.870003    155.492188    -98.135887     -0.657655   -126.099197      0.670076    -174.172455              0
LC0018       80003488             0            11  46223.425781   2815.147461    -77.122375    170.523041   -114.122261     -0.605716   -124.730431      0.379127    -189.695847              0
LC0018       80003489             0            11  46242.675781   2815.002686    -76.704895    171.773224   -113.497833     -0.535963   -124.002953      0.270156    -190.437012              0
LC0018       80003494             0            11  45841.125000   2817.707520    -86.377502     63.355743    -72.671471     -0.218967    -39.834801      0.225155     -72.795128              0
LC0018       80003495             0            11  45822.578125   2817.139893   -103.397400     61.196404    -67.148788     -0.630886    -46.162724      1.144610     -67.555252              0
LC0018       80003498             0            11  45785.574219   2817.602539    -98.828796     55.796993    -56.608189     -0.325782    -48.769554      0.195705     -62.762520              0
LC0018       80003757             0            11  46771.398438   2807.012695    -64.123299     69.081398    -79.558151     -0.212959    -39.690861      0.064378     -79.703949              0
LC0018       80003759             0            11  46804.398438   2806.502686    -63.328598     64.985489    -66.942024     -0.288568    -59.656361      0.220385     -70.764381              0
LC0018       80003765             0            11  46705.273438   2808.044922    -65.715500     86.714539    -86.776146     -0.044771    -13.118049      0.010320     -90.884766              0
LC0018       80003767             0            11  46738.398438   2807.522461    -64.917976     77.687874    -84.450043     -0.107777    -21.509714      0.027089     -85.801521              0
LC0018       80003773             0            11  46639.300781   2809.057617    -67.302025    100.123260    -90.876472      0.004537     -9.129210      0.083922    -100.082542              0
LC0018       80003775             0            11  46672.222656   2808.554932    -66.510201     93.977844    -88.477753     -0.011430     -9.666721      0.003890     -95.349457              0
LC0018       80003781             0            11  46573.300781   2810.102539    -68.892273    104.054474    -95.326683     -0.010822    -17.590445      0.005186    -106.925377              0
LC0018       80003783             0            11  46606.300781   2809.569824    -68.096703    104.372894    -93.256149      0.003771    -11.409718      0.007134    -104.469193              0
LC0018       80003792             0            11  46324.125000   2813.944824    -74.787399    188.772263    -97.128746     -0.637538    -47.087437     29.446198    -172.863251              0
LC0018       80003795             0            11  46301.976563   2814.325195    -75.348602    150.202682    -82.854477     -0.428841    -80.340561      1.788643    -154.403442              0
LC0018       80003798             0            11  46346.222656   2813.734863    -74.298904    202.088028   -125.029602     -0.628503    -71.140984     10.426353    -199.936249              0
LC0018       80003799             0            11  46368.398438   2813.415039    -73.796806    165.077454   -117.872787     -0.115412    -61.221771      0.155268    -169.640350              0
LC0018       80003808             0            11  46390.648438   2813.067627    -73.269005    149.393524   -115.710098     -0.045084    -38.708733      0.104915    -151.061813              0
LC0018       80003809             0            11  46412.851563   2812.702637    -72.737778    137.866409   -113.420059     -0.004512    -27.797249      0.088077    -138.974228              0
LC0018       80003818             0            11  46457.449219   2811.979980    -71.667778    122.171066   -108.377815      0.028636    -16.169577      0.091846    -122.947327              0
LC0018       80003819             0            11  46435.078125   2812.339844    -72.204803    128.973740   -110.809097      0.015833    -20.616728      0.085552    -129.779526              0
LC0018       80003820             0            11  46479.527344   2811.617676    -71.138573    116.490120   -106.165245      0.027431    -14.107157      0.047935    -117.727074              0
LC0018       80003821             0            11  46501.425781   2811.252686    -70.613579    111.273064   -103.655106      0.031829    -13.839797      0.046865    -113.295593              0
LC0018       80003832             0            11  46523.574219   2810.887695    -70.083328    106.868416   -100.901932      0.029076    -15.623727      0.037357    -109.975975              0
LC0018       80003833             0            11  46545.722656   2810.542480    -69.554527    103.742928    -97.757927      0.022601    -19.413939      0.043322    -108.006119              0
LC0019       80002671             0            12  45661.550781   2817.709961   -101.844002     67.910965    -74.832207     -0.075119    -27.680128      0.002315     -76.988571              0
LC0019       80002673             0            12  45595.296875   2817.679932   -103.433258     75.064713    -76.389252     -0.025112    -17.731850      0.000671     -80.831100              0
LC0019       80002675             0            12  45529.050781   2817.647461   -105.022751     79.409042    -77.250511     -0.006422    -14.026796      0.007665     -83.158211              0
LC0019       80002677             0            12  45462.796875   2817.612549   -106.612244     81.872391    -76.568092      0.002502    -12.840187      0.017503     -84.302841              0
LC0019       80002679             0            12  45396.550781   2817.582764   -108.201492     82.869461    -74.758743     -0.001670    -13.672536      0.026196     -84.680260              0
LC0019       80002681             0            12  45330.296875   2817.552490   -109.790756     85.383575    -74.019379     -0.057460    -23.565996      0.000429     -89.264015              0
LC0019       80002683             0            12  45264.050781   2817.520020   -111.380249     91.409897    -66.764137     -0.233495    -38.092941      0.293439     -95.697090              0
LC0019       80002698             0            12  45727.800781   2817.742676   -100.254745     65.027397    -71.966904     -0.171130    -42.604755      0.050312     -74.988411              0
LC0019       80003020             0            12  46969.953125   2802.587646    -59.343903     77.893814    -78.307312     -0.013815     -7.831112      0.004742     -80.545280              0
LC0019       80003021             0            12  47003.101563   2801.772461    -58.546703     75.821716    -77.124374     -0.022296     -5.989563      0.003982     -78.178520              0
LC0019       80003022             0            12  47036.250000   2800.959961    -57.749527     73.523010    -75.893677     -0.024618     -7.305959      0.003744     -76.607307              0
LC0019       80003023             0            12  47069.351563   2800.147461    -56.952351     70.976784    -73.835350     -0.028270    -13.905724      0.001545     -76.091217              0
LC0019       80003062             0            12  46903.750000   2804.209961    -60.938274     87.568771    -81.925407     -0.025368    -23.105909      0.006005     -92.979324              0
LC0019       80003063             0            12  46936.851563   2803.399902    -60.141102     81.344841    -80.176170     -0.017753    -13.095567      0.002302     -85.120682              0
LC0019       80003084             0            12  46837.453125   2805.837402    -62.532650     98.512283    -76.343819     -0.351786    -64.052597      0.309052    -110.053696              0
LC0019       80003085             0            12  46870.601563   2805.022705    -61.735447     95.554131    -81.838928     -0.087575    -44.022224      0.021919    -104.460938              0
LC0019       80003448             0            12  45933.699219   2817.097656    -84.088829     91.979065   -104.123512     -0.122447    -36.860394      0.016011    -104.615097              0
LC0019       80003451             0            12  46040.675781   2816.397461    -81.438248    107.235809   -123.187576     -0.247727    -58.041328      0.078158    -123.665024              0
LC0019       80003452             0            12  46139.449219   2815.750000    -78.991570    150.902176   -143.642120     -2.083888   -141.117188      4.840440    -150.543655              0
LC0019       80003454             0            12  45884.324219   2817.422607    -85.312073     85.617836    -97.486389     -0.164351    -40.131824      0.033617     -98.219383              0
LC0019       80003457             0            12  45974.851563   2816.827637    -83.069397     97.374649   -110.420090     -0.131476    -39.192097      0.018530    -110.806335              0
LC0019       80003458             0            12  46007.750000   2816.612549    -82.253799    102.038177   -116.520332     -0.162287    -46.246841      0.028459    -116.920601              0
LC0019       80003461             0            12  46106.523438   2815.964844    -79.807228    122.969307   -135.256577     -0.933787    -98.749596      1.197372    -135.360870              0
LC0019       80003462             0            12  46073.601563   2816.182617    -80.622772    113.675476   -129.819031     -0.449587    -76.768211      0.267380    -130.253204              0
LC0019       80003470             0            12  46204.148438   2815.289795    -77.539871    205.586334   -144.635544     -0.991545   -158.192230      0.892968    -231.477249              0
LC0019       80003472             0            12  46165.550781   2815.572510    -78.374924    203.392410   -143.878632     -2.254103   -162.706802      5.982167    -227.342239              0
LC0019       80003473             0            12  46184.851563   2815.429932    -77.957375    194.779724   -142.085480     -1.460060   -156.151642      2.292493    -220.378159              0
LC0019       80003484             0            12  46261.953125   2814.860352    -76.287476    214.255371   -140.616852     -0.725632   -163.260666      0.325875    -239.183334              0
LC0019       80003485             0            12  46281.250000   2814.720215    -75.870003    194.596680   -126.600838     -0.820905   -158.009918      0.807374    -218.734604              0
LC0019       80003488             0            12  46223.425781   2815.147461    -77.122375    212.605637   -146.608795     -0.741297   -156.273743      0.443812    -237.574707              0
LC0019       80003489             0            12  46242.675781   2815.002686    -76.704895    214.540573   -145.919693     -0.661442   -155.594254      0.322683    -238.910645              0
LC0019       80003494             0            12  45841.125000   2817.707520    -86.377502     81.298119    -93.216324     -0.265050    -49.180855      0.268657     -93.553177              0
LC0019       80003495             0            12  45822.578125   2817.139893   -103.397400     77.941704    -86.270447     -0.774822    -57.482300      1.391292     -86.461029              0
LC0019       80003498             0            12  45785.574219   2817.602539    -98.828796     69.757797    -72.875771     -0.401750    -60.459469      0.226516     -77.770607              0
LC0019       80003757             0            12  46771.398438   2807.012695    -64.123299     90.463638   -104.158913     -0.259917    -48.852413      0.075015    -104.322075              0
LC0019       80003759             0            12  46804.398438   2806.502686    -63.328598     83.414177    -88.387451     -0.349285    -72.965721      0.254505     -91.919640              0
LC0019       80003765             0            12  46705.273438   2808.044922    -65.715500    112.454071   -113.126190     -0.057051    -15.951135      0.012183    -117.722870              0
LC0019       80003767             0            12  46738.398438   2807.522461    -64.917976    101.572685   -110.233719     -0.133267    -26.310070      0.031913    -111.714645              0
LC0019       80003773             0            12  46639.300781   2809.057617    -67.302025    128.357208   -118.189140      0.002988    -10.869098      0.003404    -128.589447              0
LC0019       80003775             0            12  46672.222656   2808.554932    -66.510201    121.061890   -115.221992     -0.016296    -11.622195      0.004697    -122.963226              0
LC0019       80003781             0            12  46573.300781   2810.102539    -68.892273    133.274063   -123.805931     -0.017600    -20.783352      0.006064    -136.941025              0
LC0019       80003783             0            12  46606.300781   2809.569824    -68.096703    133.443207   -121.158028      0.001115    -13.499289      0.004015    -133.846298              0
LC0019       80003792             0            12  46324.125000   2813.944824    -74.787399    235.971466   -125.787163     -0.798281    -59.565243     33.863361    -217.994431              0
LC0019       80003795             0            12  46301.976563   2814.325195    -75.348602    186.662048   -107.461441     -0.531775   -100.534927      2.158497    -193.445679              0
LC0019       80003798             0            12  46346.222656   2813.734863    -74.298904    254.035431   -161.299637     -0.788349    -89.437874     11.501434    -252.730667              0
LC0019       80003799             0            12  46368.398438   2813.415039    -73.796806    208.183609   -151.980972     -0.146042    -76.767723      0.181752    -214.837357              0
LC0019       80003808             0            12  46390.648438   2813.067627    -73.269005    189.080765   -149.243546     -0.059448    -48.371910      0.123004    -191.897507              0
LC0019       80003809             0            12  46412.851563   2812.702637    -72.737778    175.042374   -146.351868     -0.008940    -34.592957      0.094110    -176.988205              0
LC0019       80003818             0            12  46457.449219   2811.979980    -71.667778    156.047562   -140.001602      0.032451    -19.946035      0.084352    -157.324570              0
LC0019       80003819             0            12  46435.078125   2812.339844    -72.204803    164.256485   -143.059631      0.016335    -25.552719      0.081374    -165.688644              0
LC0019       80003820             0            12  46479.527344   2811.617676    -71.138573    149.231064   -137.219147      0.031215    -17.282652      0.048674    -150.955719              0
LC0019       80003821             0            12  46501.425781   2811.252686    -70.613579    142.953934   -134.081955      0.037371    -16.793982      0.051068    -145.530945              0
LC0019       80003832             0            12  46523.574219   2810.887695    -70.083328    137.606598   -130.672028      0.034798    -18.782780      0.042327    -141.425751              0
LC0019       80003833             0            12  46545.722656   2810.542480    -69.554527    133.617661   -126.804321      0.027144    -23.074501      0.048575    -138.795975              0
LC0020       80002671             0            13  45661.550781   2817.709961   -101.844002     18.616585    -20.684181     -0.018378     -6.376350      0.000731     -20.916149              0
LC0020       80002673             0            13  45595.296875   2817.679932   -103.433258     19.238541    -21.044086     -0.007156     -4.358388      0.000089     -21.045637              0
LC0020       80002675             0            13  45529.050781   2817.647461   -105.022751     19.893620    -21.360836     -0.002693     -3.469543      0.000682     -21.390177              0
LC0020       80002677             0            13  45462.796875   2817.612549   -106.612244     20.103237    -21.336317     -0.000735     -3.239611      0.001365     -21.473906              0
LC0020       80002679             0            13  45396.550781   2817.582764   -108.201492     19.952932    -21.061758     -0.002416     -3.574583      0.001032     -21.381063              0
LC0020       80002681             0            13  45330.296875   2817.552490   -109.790756     19.852234    -21.029709     -0.016197     -5.919125      0.000219     -21.895395              0
LC0020       80002683             0            13  45264.050781   2817.520020   -111.380249     20.260139    -19.732672     -0.061531     -9.811846      0.030630     -22.776173              0
LC0020       80002698             0            13  45727.800781   2817.742676   -100.254745     22.016319    -21.076960     -0.042034    -10.331479      0.017783     -24.614737              0
LC0020       80003020             0            13  46969.953125   2802.587646    -59.343903     22.600899    -23.566191     -0.017477     -2.105815      0.000012     -23.581177              0
LC0020       80003021             0            13  47003.101563   2801.772461    -58.546703     22.642502    -23.333103     -0.020445     -1.714955      0.000019     -23.421177              0
LC0020       80003022             0            13  47036.250000   2800.959961    -57.749527     22.312630    -23.063749     -0.021209     -2.144636      0.000053     -23.240553              0
LC0020       80003023             0            13  47069.351563   2800.147461    -56.952351     21.024118    -22.563171     -0.023848     -3.764466      0.000098     -22.634642              0
LC0020       80003062             0            13  46903.750000   2804.209961    -60.938274     22.961357    -24.285803     -0.019815     -5.766239      0.001838     -25.054529              0
LC0020       80003063             0            13  46936.851563   2803.399902    -60.141102     22.634390    -23.939106     -0.017806     -3.312910      0.000352     -24.065659              0
LC0020       80003084             0            13  46837.453125   2805.837402    -62.532650     24.137955    -23.030003     -0.109834    -16.319506      0.071102     -27.705858              0
LC0020       80003085             0            13  46870.601563   2805.022705    -61.735447     23.684622    -24.181892     -0.035623    -10.577186      0.007955     -26.672758              0
LC0020       80003448             0            13  45933.699219   2817.097656    -84.088829     25.594355    -27.393696     -0.029099     -8.485866      0.002910     -28.484417              0
LC0020       80003451             0            13  46040.675781   2816.397461    -81.438248     28.844578    -31.817417     -0.048878    -12.684632      0.009873     -32.850063              0
LC0020       80003452             0            13  46139.449219   2815.750000    -78.991570     35.559841    -36.726242     -0.328014    -30.818567      0.509062     -38.678410              0
LC0020       80003454             0            13  45884.324219   2817.422607    -85.312073     24.256622    -25.910164     -0.039791     -9.409005      0.007249     -27.264946              0
LC0020       80003457             0            13  45974.851563   2816.827637    -83.069397     26.733564    -28.836088     -0.030251     -8.863371      0.002778     -29.800037              0
LC0020       80003458             0            13  46007.750000   2816.612549    -82.253799     27.760679    -30.255798     -0.035105    -10.259171      0.003935     -31.221392              0
LC0020       80003461             0            13  46106.523438   2815.964844    -79.807228     31.216194    -34.770611     -0.156770    -21.285618      0.136350     -35.767143              0
LC0020       80003462             0            13  46073.601563   2816.182617    -80.622772     29.944286    -33.399059     -0.081468    -16.647141      0.031795     -34.497295              0
LC0020       80003470             0            13  46204.148438   2815.289795    -77.539871     42.688869    -37.228073     -0.177786    -35.198479      0.105318     -49.174049              0
LC0020       80003472             0            13  46165.550781   2815.572510    -78.374924     41.151207    -37.001938     -0.353560    -35.696667      0.572062     -46.742626              0
LC0020       80003473             0            13  46184.851563   2815.429932    -77.957375     40.317307    -36.633129     -0.241732    -34.271320      0.238201     -46.251423              0
LC0020       80003484             0            13  46261.953125   2814.860352    -76.287476     44.587368    -36.421215     -0.174380    -37.475891      0.073691     -51.310883              0
LC0020       80003485             0            13  46281.250000   2814.720215    -75.870003     41.354610    -33.368774     -0.206219    -37.997990      0.184280     -47.564381              0
LC0020       80003488             0            13  46223.425781   2815.147461    -77.122375     44.160397    -37.701294     -0.147250    -35.120285      0.064336     -50.799171              0
LC0020       80003489             0            13  46242.675781   2815.002686    -76.704895     44.672867    -37.599308     -0.147028    -35.430325      0.059247     -51.342625              0
LC0020       80003494             0            13  45841.125000   2817.707520    -86.377502     22.896049    -24.955063     -0.063132    -11.147298      0.066492     -26.149801              0
LC0020       80003495             0            13  45822.578125   2817.139893   -103.397400     21.374039    -23.299492     -0.188917    -12.766625      0.411721     -24.262707              0
LC0020       80003498             0            13  45785.574219   2817.602539    -98.828796     18.756081    -21.027109     -0.099347    -14.073366      0.048249     -21.251747              0
LC0020       80003757             0            13  46771.398438   2807.012695    -64.123299     27.188374    -29.931622     -0.084304    -11.729294      0.027802     -30.916452              0
LC0020       80003759             0            13  46804.398438   2806.502686    -63.328598     24.231182    -26.358509     -0.110545    -18.559240      0.087992     -27.534847              0
LC0020       80003765             0            13  46705.273438   2808.044922    -65.715500     30.149237    -31.913389     -0.030355     -3.947520      0.005518     -31.932116              0
LC0020       80003767             0            13  46738.398438   2807.522461    -64.917976     28.872059    -31.325779     -0.050537     -6.546673      0.012339     -31.528917              0
LC0020       80003773             0            13  46639.300781   2809.057617    -67.302025     32.248295    -32.802994     -0.011671     -2.734549      0.000913     -33.309620              0
LC0020       80003775             0            13  46672.222656   2808.554932    -66.510201     31.208138    -32.264805     -0.017690     -2.891781      0.002449     -32.471363              0
LC0020       80003781             0            13  46573.300781   2810.102539    -68.892273     32.817299    -33.746986     -0.019515     -5.188673      0.002049     -34.726334              0
LC0020       80003783             0            13  46606.300781   2809.569824    -68.096703     32.959896    -33.306747     -0.011855     -3.387114      0.001341     -34.159153              0
LC0020       80003792             0            13  46324.125000   2813.944824    -74.787399     51.725452    -33.305603     -0.194747    -13.615656      4.078190     -50.057266              0
LC0020       80003795             0            13  46301.976563   2814.325195    -75.348602     40.243519    -28.875227     -0.154912    -24.588263      0.492358     -43.993137              0
LC0020       80003798             0            13  46346.222656   2813.734863    -74.298904     56.852070    -42.122070     -0.195803    -21.135866      1.168564     -58.839542              0
LC0020       80003799             0            13  46368.398438   2813.415039    -73.796806     46.819283    -39.683563     -0.046982    -18.026802      0.033043     -50.149231              0
LC0020       80003808             0            13  46390.648438   2813.067627    -73.269005     43.239578    -39.140381     -0.029219    -11.369905      0.026241     -45.524002              0
LC0020       80003809             0            13  46412.851563   2812.702637    -72.737778     40.724564    -38.542778     -0.017874     -8.122703      0.016758     -42.606937              0
LC0020       80003818             0            13  46457.449219   2811.979980    -71.667778     37.478607    -37.220425     -0.009693     -4.772029      0.006054     -38.922615              0
LC0020       80003819             0            13  46435.078125   2812.339844    -72.204803     38.857033    -37.856884     -0.012693     -6.043684      0.010377     -40.464897              0
LC0020       80003820             0            13  46479.527344   2811.617676    -71.138573     36.314075    -36.635132     -0.010991     -4.223816      0.003241     -37.765999              0
LC0020       80003821             0            13  46501.425781   2811.252686    -70.613579     35.151173    -35.957767     -0.009680     -4.181647      0.001521     -36.733898              0
LC0020       80003832             0            13  46523.574219   2810.887695    -70.083328     33.963737    -35.200443     -0.009727     -4.743970      0.000544     -35.835251              0
LC0020       80003833             0            13  46545.722656   2810.542480    -69.554527     32.739731    -34.322540     -0.010803     -5.812018      0.001110     -35.005424              0
